Mg75 Co75 O150
1.0
  13.3068499999999990    0.0000000000000000    0.0000000000000000
   0.0000000000000000   13.3068499999999990    0.0000000000000000
   0.0000000000000000    0.0000000000000000   15.9682199999999987
Co Mg O
75 75 150
direct
   0.0000000000000000    0.0000000000000000    0.1666666666666667 Co
   0.0000000000000000    0.0000000000000000    0.5000000000000000 Co
   0.0000000000000000    0.0000000000000000    0.6666666666666667 Co
   0.0000000000000000    0.2000000000000000    0.1666666666666667 Co
   0.0000000000000000    0.2000000000000000    0.6666666666666667 Co
   0.0000000000000000    0.2000000000000000    0.8333333333333333 Co
   0.0000000000000000    0.4000000000000000    0.1666666666666667 Co
   0.0000000000000000    0.4000000000000000    0.5000000000000000 Co
   0.0000000000000000    0.4000000000000000    0.6666666666666667 Co
   0.0000000000000000    0.4000000000000000    0.8333333333333333 Co
   0.0000000000000000    0.6000000000000001    0.0000000000000000 Co
   0.0000000000000000    0.6000000000000001    0.3333333333333334 Co
   0.0000000000000000    0.8000000000000000    0.1666666666666667 Co
   0.0000000000000000    0.8000000000000000    0.3333333333333334 Co
   0.0000000000000000    0.8000000000000000    0.5000000000000000 Co
   0.2000000000000000    0.0000000000000000    0.1666666666666667 Co
   0.2000000000000000    0.0000000000000000    0.5000000000000000 Co
   0.2000000000000000    0.0000000000000000    0.6666666666666667 Co
   0.2000000000000000    0.0000000000000000    0.8333333333333333 Co
   0.2000000000000000    0.2000000000000000    0.8333333333333333 Co
   0.2000000000000000    0.4000000000000000    0.0000000000000000 Co
   0.2000000000000000    0.4000000000000000    0.1666666666666667 Co
   0.2000000000000000    0.4000000000000000    0.8333333333333333 Co
   0.2000000000000000    0.6000000000000001    0.0000000000000000 Co
   0.2000000000000000    0.6000000000000001    0.1666666666666667 Co
   0.2000000000000000    0.8000000000000000    0.1666666666666667 Co
   0.2000000000000000    0.8000000000000000    0.5000000000000000 Co
   0.2000000000000000    0.8000000000000000    0.8333333333333333 Co
   0.4000000000000000    0.0000000000000000    0.3333333333333334 Co
   0.4000000000000000    0.0000000000000000    0.5000000000000000 Co
   0.4000000000000000    0.0000000000000000    0.6666666666666667 Co
   0.4000000000000000    0.0000000000000000    0.8333333333333333 Co
   0.4000000000000000    0.2000000000000000    0.0000000000000000 Co
   0.4000000000000000    0.2000000000000000    0.1666666666666667 Co
   0.4000000000000000    0.2000000000000000    0.3333333333333334 Co
   0.4000000000000000    0.2000000000000000    0.8333333333333333 Co
   0.4000000000000000    0.4000000000000000    0.1666666666666667 Co
   0.4000000000000000    0.4000000000000000    0.6666666666666667 Co
   0.4000000000000000    0.6000000000000001    0.5000000000000000 Co
   0.4000000000000000    0.8000000000000000    0.0000000000000000 Co
   0.4000000000000000    0.8000000000000000    0.1666666666666667 Co
   0.4000000000000000    0.8000000000000000    0.5000000000000000 Co
   0.4000000000000000    0.8000000000000000    0.6666666666666667 Co
   0.4000000000000000    0.8000000000000000    0.8333333333333333 Co
   0.6000000000000001    0.0000000000000000    0.0000000000000000 Co
   0.6000000000000001    0.0000000000000000    0.1666666666666667 Co
   0.6000000000000001    0.2000000000000000    0.0000000000000000 Co
   0.6000000000000001    0.2000000000000000    0.1666666666666667 Co
   0.6000000000000001    0.2000000000000000    0.3333333333333334 Co
   0.6000000000000001    0.2000000000000000    0.6666666666666667 Co
   0.6000000000000001    0.2000000000000000    0.8333333333333333 Co
   0.6000000000000001    0.4000000000000000    0.3333333333333334 Co
   0.6000000000000001    0.6000000000000001    0.0000000000000000 Co
   0.6000000000000001    0.6000000000000001    0.1666666666666667 Co
   0.6000000000000001    0.6000000000000001    0.8333333333333333 Co
   0.6000000000000001    0.8000000000000000    0.5000000000000000 Co
   0.6000000000000001    0.8000000000000000    0.8333333333333333 Co
   0.8000000000000000    0.0000000000000000    0.3333333333333334 Co
   0.8000000000000000    0.0000000000000000    0.5000000000000000 Co
   0.8000000000000000    0.2000000000000000    0.0000000000000000 Co
   0.8000000000000000    0.2000000000000000    0.1666666666666667 Co
   0.8000000000000000    0.2000000000000000    0.3333333333333334 Co
   0.8000000000000000    0.2000000000000000    0.6666666666666667 Co
   0.8000000000000000    0.2000000000000000    0.8333333333333333 Co
   0.8000000000000000    0.4000000000000000    0.1666666666666667 Co
   0.8000000000000000    0.4000000000000000    0.3333333333333334 Co
   0.8000000000000000    0.4000000000000000    0.5000000000000000 Co
   0.8000000000000000    0.6000000000000001    0.1666666666666667 Co
   0.8000000000000000    0.6000000000000001    0.3333333333333334 Co
   0.8000000000000000    0.6000000000000001    0.5000000000000000 Co
   0.8000000000000000    0.6000000000000001    0.6666666666666667 Co
   0.8000000000000000    0.6000000000000001    0.8333333333333333 Co
   0.8000000000000000    0.8000000000000000    0.1666666666666667 Co
   0.8000000000000000    0.8000000000000000    0.5000000000000000 Co
   0.8000000000000000    0.8000000000000000    0.6666666666666667 Co
   0.0000000000000000    0.0000000000000000    0.0000000000000000 Mg
   0.0000000000000000    0.0000000000000000    0.3333333333333334 Mg
   0.0000000000000000    0.0000000000000000    0.8333333333333333 Mg
   0.0000000000000000    0.2000000000000000    0.0000000000000000 Mg
   0.0000000000000000    0.2000000000000000    0.3333333333333334 Mg
   0.0000000000000000    0.2000000000000000    0.5000000000000000 Mg
   0.0000000000000000    0.4000000000000000    0.0000000000000000 Mg
   0.0000000000000000    0.4000000000000000    0.3333333333333334 Mg
   0.0000000000000000    0.6000000000000001    0.1666666666666667 Mg
   0.0000000000000000    0.6000000000000001    0.5000000000000000 Mg
   0.0000000000000000    0.6000000000000001    0.6666666666666667 Mg
   0.0000000000000000    0.6000000000000001    0.8333333333333333 Mg
   0.0000000000000000    0.8000000000000000    0.0000000000000000 Mg
   0.0000000000000000    0.8000000000000000    0.6666666666666667 Mg
   0.0000000000000000    0.8000000000000000    0.8333333333333333 Mg
   0.2000000000000000    0.0000000000000000    0.0000000000000000 Mg
   0.2000000000000000    0.0000000000000000    0.3333333333333334 Mg
   0.2000000000000000    0.2000000000000000    0.0000000000000000 Mg
   0.2000000000000000    0.2000000000000000    0.1666666666666667 Mg
   0.2000000000000000    0.2000000000000000    0.3333333333333334 Mg
   0.2000000000000000    0.2000000000000000    0.5000000000000000 Mg
   0.2000000000000000    0.2000000000000000    0.6666666666666667 Mg
   0.2000000000000000    0.4000000000000000    0.3333333333333334 Mg
   0.2000000000000000    0.4000000000000000    0.5000000000000000 Mg
   0.2000000000000000    0.4000000000000000    0.6666666666666667 Mg
   0.2000000000000000    0.6000000000000001    0.3333333333333334 Mg
   0.2000000000000000    0.6000000000000001    0.5000000000000000 Mg
   0.2000000000000000    0.6000000000000001    0.6666666666666667 Mg
   0.2000000000000000    0.6000000000000001    0.8333333333333333 Mg
   0.2000000000000000    0.8000000000000000    0.0000000000000000 Mg
   0.2000000000000000    0.8000000000000000    0.3333333333333334 Mg
   0.2000000000000000    0.8000000000000000    0.6666666666666667 Mg
   0.4000000000000000    0.0000000000000000    0.0000000000000000 Mg
   0.4000000000000000    0.0000000000000000    0.1666666666666667 Mg
   0.4000000000000000    0.2000000000000000    0.5000000000000000 Mg
   0.4000000000000000    0.2000000000000000    0.6666666666666667 Mg
   0.4000000000000000    0.4000000000000000    0.0000000000000000 Mg
   0.4000000000000000    0.4000000000000000    0.3333333333333334 Mg
   0.4000000000000000    0.4000000000000000    0.5000000000000000 Mg
   0.4000000000000000    0.4000000000000000    0.8333333333333333 Mg
   0.4000000000000000    0.6000000000000001    0.0000000000000000 Mg
   0.4000000000000000    0.6000000000000001    0.1666666666666667 Mg
   0.4000000000000000    0.6000000000000001    0.3333333333333334 Mg
   0.4000000000000000    0.6000000000000001    0.6666666666666667 Mg
   0.4000000000000000    0.6000000000000001    0.8333333333333333 Mg
   0.4000000000000000    0.8000000000000000    0.3333333333333334 Mg
   0.6000000000000001    0.0000000000000000    0.3333333333333334 Mg
   0.6000000000000001    0.0000000000000000    0.5000000000000000 Mg
   0.6000000000000001    0.0000000000000000    0.6666666666666667 Mg
   0.6000000000000001    0.0000000000000000    0.8333333333333333 Mg
   0.6000000000000001    0.2000000000000000    0.5000000000000000 Mg
   0.6000000000000001    0.4000000000000000    0.0000000000000000 Mg
   0.6000000000000001    0.4000000000000000    0.1666666666666667 Mg
   0.6000000000000001    0.4000000000000000    0.5000000000000000 Mg
   0.6000000000000001    0.4000000000000000    0.6666666666666667 Mg
   0.6000000000000001    0.4000000000000000    0.8333333333333333 Mg
   0.6000000000000001    0.6000000000000001    0.3333333333333334 Mg
   0.6000000000000001    0.6000000000000001    0.5000000000000000 Mg
   0.6000000000000001    0.6000000000000001    0.6666666666666667 Mg
   0.6000000000000001    0.8000000000000000    0.0000000000000000 Mg
   0.6000000000000001    0.8000000000000000    0.1666666666666667 Mg
   0.6000000000000001    0.8000000000000000    0.3333333333333334 Mg
   0.6000000000000001    0.8000000000000000    0.6666666666666667 Mg
   0.8000000000000000    0.0000000000000000    0.0000000000000000 Mg
   0.8000000000000000    0.0000000000000000    0.1666666666666667 Mg
   0.8000000000000000    0.0000000000000000    0.6666666666666667 Mg
   0.8000000000000000    0.0000000000000000    0.8333333333333333 Mg
   0.8000000000000000    0.2000000000000000    0.5000000000000000 Mg
   0.8000000000000000    0.4000000000000000    0.0000000000000000 Mg
   0.8000000000000000    0.4000000000000000    0.6666666666666667 Mg
   0.8000000000000000    0.4000000000000000    0.8333333333333333 Mg
   0.8000000000000000    0.6000000000000001    0.0000000000000000 Mg
   0.8000000000000000    0.8000000000000000    0.0000000000000000 Mg
   0.8000000000000000    0.8000000000000000    0.3333333333333334 Mg
   0.8000000000000000    0.8000000000000000    0.8333333333333333 Mg
   0.1000000000000000    0.1000000000000000    0.0833333333333333 O
   0.1000000000000000    0.1000000000000000    0.2500000000000000 O
   0.1000000000000000    0.1000000000000000    0.4166666666666667 O
   0.1000000000000000    0.1000000000000000    0.5833333333333334 O
   0.1000000000000000    0.1000000000000000    0.7500000000000000 O
   0.1000000000000000    0.1000000000000000    0.9166666666666665 O
   0.1000000000000000    0.3000000000000000    0.0833333333333333 O
   0.1000000000000000    0.3000000000000000    0.2500000000000000 O
   0.1000000000000000    0.3000000000000000    0.4166666666666667 O
   0.1000000000000000    0.3000000000000000    0.5833333333333334 O
   0.1000000000000000    0.3000000000000000    0.7500000000000000 O
   0.1000000000000000    0.3000000000000000    0.9166666666666665 O
   0.1000000000000000    0.5000000000000000    0.0833333333333333 O
   0.1000000000000000    0.5000000000000000    0.2500000000000000 O
   0.1000000000000000    0.5000000000000000    0.4166666666666667 O
   0.1000000000000000    0.5000000000000000    0.5833333333333334 O
   0.1000000000000000    0.5000000000000000    0.7500000000000000 O
   0.1000000000000000    0.5000000000000000    0.9166666666666665 O
   0.1000000000000000    0.7000000000000002    0.0833333333333333 O
   0.1000000000000000    0.7000000000000002    0.2500000000000000 O
   0.1000000000000000    0.7000000000000002    0.4166666666666667 O
   0.1000000000000000    0.7000000000000002    0.5833333333333334 O
   0.1000000000000000    0.7000000000000002    0.7500000000000000 O
   0.1000000000000000    0.7000000000000002    0.9166666666666665 O
   0.1000000000000000    0.9000000000000000    0.0833333333333333 O
   0.1000000000000000    0.9000000000000000    0.2500000000000000 O
   0.1000000000000000    0.9000000000000000    0.4166666666666667 O
   0.1000000000000000    0.9000000000000000    0.5833333333333334 O
   0.1000000000000000    0.9000000000000000    0.7500000000000000 O
   0.1000000000000000    0.9000000000000000    0.9166666666666665 O
   0.3000000000000000    0.1000000000000000    0.0833333333333333 O
   0.3000000000000000    0.1000000000000000    0.2500000000000000 O
   0.3000000000000000    0.1000000000000000    0.4166666666666667 O
   0.3000000000000000    0.1000000000000000    0.5833333333333334 O
   0.3000000000000000    0.1000000000000000    0.7500000000000000 O
   0.3000000000000000    0.1000000000000000    0.9166666666666665 O
   0.3000000000000000    0.3000000000000000    0.0833333333333333 O
   0.3000000000000000    0.3000000000000000    0.2500000000000000 O
   0.3000000000000000    0.3000000000000000    0.4166666666666667 O
   0.3000000000000000    0.3000000000000000    0.5833333333333334 O
   0.3000000000000000    0.3000000000000000    0.7500000000000000 O
   0.3000000000000000    0.3000000000000000    0.9166666666666665 O
   0.3000000000000000    0.5000000000000000    0.0833333333333333 O
   0.3000000000000000    0.5000000000000000    0.2500000000000000 O
   0.3000000000000000    0.5000000000000000    0.4166666666666667 O
   0.3000000000000000    0.5000000000000000    0.5833333333333334 O
   0.3000000000000000    0.5000000000000000    0.7500000000000000 O
   0.3000000000000000    0.5000000000000000    0.9166666666666665 O
   0.3000000000000000    0.7000000000000002    0.0833333333333333 O
   0.3000000000000000    0.7000000000000002    0.2500000000000000 O
   0.3000000000000000    0.7000000000000002    0.4166666666666667 O
   0.3000000000000000    0.7000000000000002    0.5833333333333334 O
   0.3000000000000000    0.7000000000000002    0.7500000000000000 O
   0.3000000000000000    0.7000000000000002    0.9166666666666665 O
   0.3000000000000000    0.9000000000000000    0.0833333333333333 O
   0.3000000000000000    0.9000000000000000    0.2500000000000000 O
   0.3000000000000000    0.9000000000000000    0.4166666666666667 O
   0.3000000000000000    0.9000000000000000    0.5833333333333334 O
   0.3000000000000000    0.9000000000000000    0.7500000000000000 O
   0.3000000000000000    0.9000000000000000    0.9166666666666665 O
   0.5000000000000000    0.1000000000000000    0.0833333333333333 O
   0.5000000000000000    0.1000000000000000    0.2500000000000000 O
   0.5000000000000000    0.1000000000000000    0.4166666666666667 O
   0.5000000000000000    0.1000000000000000    0.5833333333333334 O
   0.5000000000000000    0.1000000000000000    0.7500000000000000 O
   0.5000000000000000    0.1000000000000000    0.9166666666666665 O
   0.5000000000000000    0.3000000000000000    0.0833333333333333 O
   0.5000000000000000    0.3000000000000000    0.2500000000000000 O
   0.5000000000000000    0.3000000000000000    0.4166666666666667 O
   0.5000000000000000    0.3000000000000000    0.5833333333333334 O
   0.5000000000000000    0.3000000000000000    0.7500000000000000 O
   0.5000000000000000    0.3000000000000000    0.9166666666666665 O
   0.5000000000000000    0.5000000000000000    0.0833333333333333 O
   0.5000000000000000    0.5000000000000000    0.2500000000000000 O
   0.5000000000000000    0.5000000000000000    0.4166666666666667 O
   0.5000000000000000    0.5000000000000000    0.5833333333333334 O
   0.5000000000000000    0.5000000000000000    0.7500000000000000 O
   0.5000000000000000    0.5000000000000000    0.9166666666666665 O
   0.5000000000000000    0.7000000000000002    0.0833333333333333 O
   0.5000000000000000    0.7000000000000002    0.2500000000000000 O
   0.5000000000000000    0.7000000000000002    0.4166666666666667 O
   0.5000000000000000    0.7000000000000002    0.5833333333333334 O
   0.5000000000000000    0.7000000000000002    0.7500000000000000 O
   0.5000000000000000    0.7000000000000002    0.9166666666666665 O
   0.5000000000000000    0.9000000000000000    0.0833333333333333 O
   0.5000000000000000    0.9000000000000000    0.2500000000000000 O
   0.5000000000000000    0.9000000000000000    0.4166666666666667 O
   0.5000000000000000    0.9000000000000000    0.5833333333333334 O
   0.5000000000000000    0.9000000000000000    0.7500000000000000 O
   0.5000000000000000    0.9000000000000000    0.9166666666666665 O
   0.7000000000000002    0.1000000000000000    0.0833333333333333 O
   0.7000000000000002    0.1000000000000000    0.2500000000000000 O
   0.7000000000000002    0.1000000000000000    0.4166666666666667 O
   0.7000000000000002    0.1000000000000000    0.5833333333333334 O
   0.7000000000000002    0.1000000000000000    0.7500000000000000 O
   0.7000000000000002    0.1000000000000000    0.9166666666666665 O
   0.7000000000000002    0.3000000000000000    0.0833333333333333 O
   0.7000000000000002    0.3000000000000000    0.2500000000000000 O
   0.7000000000000002    0.3000000000000000    0.4166666666666667 O
   0.7000000000000002    0.3000000000000000    0.5833333333333334 O
   0.7000000000000002    0.3000000000000000    0.7500000000000000 O
   0.7000000000000002    0.3000000000000000    0.9166666666666665 O
   0.7000000000000002    0.5000000000000000    0.0833333333333333 O
   0.7000000000000002    0.5000000000000000    0.2500000000000000 O
   0.7000000000000002    0.5000000000000000    0.4166666666666667 O
   0.7000000000000002    0.5000000000000000    0.5833333333333334 O
   0.7000000000000002    0.5000000000000000    0.7500000000000000 O
   0.7000000000000002    0.5000000000000000    0.9166666666666665 O
   0.7000000000000002    0.7000000000000002    0.0833333333333333 O
   0.7000000000000002    0.7000000000000002    0.2500000000000000 O
   0.7000000000000002    0.7000000000000002    0.4166666666666667 O
   0.7000000000000002    0.7000000000000002    0.5833333333333334 O
   0.7000000000000002    0.7000000000000002    0.7500000000000000 O
   0.7000000000000002    0.7000000000000002    0.9166666666666665 O
   0.7000000000000002    0.9000000000000000    0.0833333333333333 O
   0.7000000000000002    0.9000000000000000    0.2500000000000000 O
   0.7000000000000002    0.9000000000000000    0.4166666666666667 O
   0.7000000000000002    0.9000000000000000    0.5833333333333334 O
   0.7000000000000002    0.9000000000000000    0.7500000000000000 O
   0.7000000000000002    0.9000000000000000    0.9166666666666665 O
   0.9000000000000000    0.1000000000000000    0.0833333333333333 O
   0.9000000000000000    0.1000000000000000    0.2500000000000000 O
   0.9000000000000000    0.1000000000000000    0.4166666666666667 O
   0.9000000000000000    0.1000000000000000    0.5833333333333334 O
   0.9000000000000000    0.1000000000000000    0.7500000000000000 O
   0.9000000000000000    0.1000000000000000    0.9166666666666665 O
   0.9000000000000000    0.3000000000000000    0.0833333333333333 O
   0.9000000000000000    0.3000000000000000    0.2500000000000000 O
   0.9000000000000000    0.3000000000000000    0.4166666666666667 O
   0.9000000000000000    0.3000000000000000    0.5833333333333334 O
   0.9000000000000000    0.3000000000000000    0.7500000000000000 O
   0.9000000000000000    0.3000000000000000    0.9166666666666665 O
   0.9000000000000000    0.5000000000000000    0.0833333333333333 O
   0.9000000000000000    0.5000000000000000    0.2500000000000000 O
   0.9000000000000000    0.5000000000000000    0.4166666666666667 O
   0.9000000000000000    0.5000000000000000    0.5833333333333334 O
   0.9000000000000000    0.5000000000000000    0.7500000000000000 O
   0.9000000000000000    0.5000000000000000    0.9166666666666665 O
   0.9000000000000000    0.7000000000000002    0.0833333333333333 O
   0.9000000000000000    0.7000000000000002    0.2500000000000000 O
   0.9000000000000000    0.7000000000000002    0.4166666666666667 O
   0.9000000000000000    0.7000000000000002    0.5833333333333334 O
   0.9000000000000000    0.7000000000000002    0.7500000000000000 O
   0.9000000000000000    0.7000000000000002    0.9166666666666665 O
   0.9000000000000000    0.9000000000000000    0.0833333333333333 O
   0.9000000000000000    0.9000000000000000    0.2500000000000000 O
   0.9000000000000000    0.9000000000000000    0.4166666666666667 O
   0.9000000000000000    0.9000000000000000    0.5833333333333334 O
   0.9000000000000000    0.9000000000000000    0.7500000000000000 O
   0.9000000000000000    0.9000000000000000    0.9166666666666665 O
