Mn4 Cr4 Fe4 Co4 Ni4
1.0
   0.0000000000000000    3.6000000000000001    3.6000000000000001
   3.6000000000000001    0.0000000000000000    3.6000000000000001
   9.0000000000000000    9.0000000000000000    0.0000000000000000
Co Cr Fe Mn Ni
4 4 4 4 4
direct
   0.0000000000000000    0.5000000000000000    0.0000000000000000 Co
   0.5000000000000000    0.5000000000000001    0.4000000000000000 Co
   0.5000000000000000    0.5000000000000001    0.6000000000000001 Co
   0.5000000000000001    0.5000000000000000    0.8000000000000000 Co
   0.5000000000000001    0.0000000000000000    0.2000000000000000 Cr
   0.5000000000000001    0.0000000000000000    0.4000000000000000 Cr
   0.5000000000000001    0.0000000000000000    0.6000000000000001 Cr
   0.5000000000000000    0.5000000000000000    0.0000000000000000 Cr
   0.0000000000000000    0.0000000000000000    0.6000000000000000 Fe
   0.0000000000000001    0.9999999999999999    0.7999999999999999 Fe
   0.5000000000000001    0.0000000000000000    0.7999999999999999 Fe
   0.5000000000000001    0.5000000000000000    0.2000000000000000 Fe
   0.0000000000000000    0.0000000000000000    0.0000000000000000 Mn
   0.0000000000000000    0.0000000000000000    0.4000000000000000 Mn
   0.9999999999999999    0.5000000000000002    0.6000000000000001 Mn
   0.0000000000000001    0.4999999999999999    0.8000000000000000 Mn
   0.0000000000000000    0.0000000000000000    0.2000000000000000 Ni
   0.0000000000000000    0.5000000000000000    0.2000000000000000 Ni
   0.0000000000000000    0.5000000000000001    0.4000000000000000 Ni
   0.5000000000000000    0.0000000000000000    0.0000000000000000 Ni
